
Gurobi 10.0.1 (mac64[arm]) logging started Mon Sep 18 23:08:09 2023

Set parameter LogFile to value "scenario_returns/returns_beta/results/M_j_b_50/mip_log.txt"
Gurobi Optimizer version 10.0.1 build v10.0.1rc0 (mac64[arm])

CPU model: Apple M1
Thread count: 8 physical cores, 8 logical processors, using up to 8 threads

Optimize a model with 8470 rows, 31465 columns and 123860 nonzeros
Model fingerprint: 0x7c03294f
Model has 44890 general constraints
Variable types: 5 continuous, 31460 integer (2040 binary)
Coefficient statistics:
  Matrix range     [6e-02, 3e+05]
  Objective range  [9e-02, 2e+05]
  Bounds range     [1e+00, 2e+07]
  RHS range        [2e+03, 2e+04]
  GenCon rhs range [1e+00, 1e+00]
  GenCon coe range [1e+00, 1e+00]

MIP start from previous solve did not produce a new incumbent solution
Processed MIP start in 3.32 seconds (4.23 work units)

Presolve removed 6820 rows and 25545 columns
Presolve time: 1.02s
Presolved: 1650 rows, 5920 columns, 23693 nonzeros
Presolved model has 4 SOS constraint(s)
Variable types: 0 continuous, 5920 integer (34 binary)

Root relaxation: objective 5.454249e+07, 7870 iterations, 0.16 seconds (0.23 work units)

    Nodes    |    Current Node    |     Objective Bounds      |     Work
 Expl Unexpl |  Obj  Depth IntInf | Incumbent    BestBd   Gap | It/Node Time

     0     0 5.4542e+07    0  811          - 5.4542e+07      -     -    4s
     0     0 5.5448e+07    0  951          - 5.5448e+07      -     -    4s
     0     0 5.5450e+07    0  969          - 5.5450e+07      -     -    4s
     0     0 5.5450e+07    0  978          - 5.5450e+07      -     -    4s
     0     0 5.5450e+07    0  979          - 5.5450e+07      -     -    4s
     0     0 5.5450e+07    0 1031          - 5.5450e+07      -     -    4s
     0     0 5.5450e+07    0 1029          - 5.5450e+07      -     -    4s
     0     0 5.5450e+07    0  917          - 5.5450e+07      -     -    4s
     0     0 5.5450e+07    0  922          - 5.5450e+07      -     -    4s
     0     0 5.5450e+07    0  955          - 5.5450e+07      -     -    4s
     0     0 5.5450e+07    0  934          - 5.5450e+07      -     -    4s
H    0     0                    5.937654e+07 5.5450e+07  6.61%     -    5s
H    0     0                    5.936104e+07 5.5450e+07  6.59%     -    5s
     0     2 5.5450e+07    0  922 5.9361e+07 5.5450e+07  6.59%     -    5s
H   37    38                    5.744765e+07 5.5705e+07  3.03%   422    5s
H   70    63                    5.743581e+07 5.5707e+07  3.01%   338    6s
  2136   968 5.7031e+07   38  415 5.7436e+07 5.6319e+07  1.95%   116   10s
H 2626   889                    5.742978e+07 5.6356e+07  1.87%   111   10s
H 2712   865                    5.742978e+07 5.6356e+07  1.87%   111   10s
H 2722   819                    5.742977e+07 5.6356e+07  1.87%   111   10s
H 2831   830                    5.742977e+07 5.6356e+07  1.87%   109   10s
H 3014   884                    5.742977e+07 5.6356e+07  1.87%   105   11s
H 3034   809                    5.742977e+07 5.6356e+07  1.87%   104   11s
H 4429   952                    5.742976e+07 5.6549e+07  1.53%  91.3   12s
* 7586  1203              93    5.740285e+07 5.6708e+07  1.21%  71.5   13s
H 8679   654                    5.732405e+07 5.6808e+07  0.90%  68.9   14s
 10677  2697 5.7257e+07   79  234 5.7324e+07 5.7112e+07  0.37%  61.0   15s
H23807  7553                    5.729248e+07 5.7229e+07  0.11%  35.8   19s
 23812  8314 5.7229e+07  116  158 5.7292e+07 5.7229e+07  0.11%  35.8   20s
 41582 20781 5.7229e+07  121   86 5.7292e+07 5.7229e+07  0.11%  27.4   25s
 54129 28149 5.7229e+07 1387   23 5.7292e+07 5.7229e+07  0.11%  26.2   30s
H59888  6363                    5.722877e+07 5.7229e+07  0.00%  25.6   32s
H60362  3409                    5.722876e+07 5.7229e+07  0.00%  25.5   32s

Cutting planes:
  Implied bound: 170
  MIR: 42
  Inf proof: 2
  Relax-and-lift: 41

Explored 60564 nodes (1551281 simplex iterations) in 32.68 seconds (34.81 work units)
Thread count was 8 (of 8 available processors)

Solution count 10: 5.72288e+07 5.72288e+07 5.72925e+07 ... 5.74298e+07

Optimal solution found (tolerance 1.00e-04)
Best objective 5.722876300000e+07, best bound 5.722875636301e+07, gap 0.0000%
